mlkem-native/cvc5/barrett_reduce_harness.smt2
; SMT 2
; Generated for CVC 5
(set-info :source "Generated by CBMC 6.8.0 (n/a)")
(set-logic ALL)

; find_symbols
(declare-fun |harness::1::a!0@1#1| () (_ BitVec 16))
; set_to true (equal)
(define-fun |mlk_barrett_reduce::a_wrapper!0@1#1| () (_ BitVec 16) |harness::1::a!0@1#1|)

; set_to true (equal)
(define-fun |mlk_barrett_reduce::a!0@1#1| () (_ BitVec 16) |mlk_barrett_reduce::a_wrapper!0@1#1|)

; set_to true (equal)
(define-fun |mlk_barrett_reduce::1::t!0@1#2| () (_ BitVec 32) (bvashr (bvadd (bvmul (_ bv20159 32) ((_ sign_extend 16) |mlk_barrett_reduce::a!0@1#1|)) (_ bv33554432 32)) (_ bv26 32)))

; set_to true (equal)
(define-fun |mlk_barrett_reduce::1::res!0@1#2| () (_ BitVec 16) (bvadd |mlk_barrett_reduce::a!0@1#1| (bvneg (bvmul ((_ extract 15 0) |mlk_barrett_reduce::1::t!0@1#2|) (_ bv3329 16)))))

; set_to true (equal)
(define-fun |goto_symex::return_value::mlk_barrett_reduce_wrapped_for_contract_checking!0#1| () (_ BitVec 16) |mlk_barrett_reduce::1::res!0@1#2|)

; set_to true (equal)
(define-fun |mlk_barrett_reduce::__contract_return_value!0@1#2| () (_ BitVec 16) |goto_symex::return_value::mlk_barrett_reduce_wrapped_for_contract_checking!0#1|)

; convert
; Converting var_no 0 with expr ID of =
(define-fun B0 () Bool (= |harness::1::a!0@1#1| |harness::1::a!0@1#1|))

; convert
; Converting var_no 1 with expr ID of =
(define-fun B1 () Bool (= |harness::1::a!0@1#1| |harness::1::a!0@1#1|))

; find_symbols
(declare-fun |mlk_barrett_reduce::1::1::_cbmc_idx12!0@1#1| () (_ BitVec 32))
; convert
; Converting var_no 2 with expr ID of =
(define-fun B2 () Bool (= |mlk_barrett_reduce::1::1::_cbmc_idx12!0@1#1| |mlk_barrett_reduce::1::1::_cbmc_idx12!0@1#1|))

; convert
; Converting var_no 3 with expr ID of =
(define-fun B3 () Bool (= |mlk_barrett_reduce::1::1::_cbmc_idx12!0@1#1| |mlk_barrett_reduce::1::1::_cbmc_idx12!0@1#1|))

; find_symbols
(declare-fun |symex::args::0| () (_ BitVec 16))
; set_to true
(assert (= |harness::1::a!0@1#1| |symex::args::0|))

(declare-datatypes ((struct.2 0)) (((mk-struct.2 (struct.2.is_writable (_ BitVec 8)) (struct.2.$pad1 (_ BitVec 56)) (struct.2.size (_ BitVec 64)) (struct.2.lb (_ BitVec 64)) (struct.2.ub (_ BitVec 64)) ))))
(define-fun update-struct.2.is_writable ((s struct.2) (v (_ BitVec 8))) struct.2 (mk-struct.2 v (struct.2.$pad1 s) (struct.2.size s) (struct.2.lb s) (struct.2.ub s) ))
(define-fun update-struct.2.$pad1 ((s struct.2) (v (_ BitVec 56))) struct.2 (mk-struct.2 (struct.2.is_writable s) v (struct.2.size s) (struct.2.lb s) (struct.2.ub s) ))
(define-fun update-struct.2.size ((s struct.2) (v (_ BitVec 64))) struct.2 (mk-struct.2 (struct.2.is_writable s) (struct.2.$pad1 s) v (struct.2.lb s) (struct.2.ub s) ))
(define-fun update-struct.2.lb ((s struct.2) (v (_ BitVec 64))) struct.2 (mk-struct.2 (struct.2.is_writable s) (struct.2.$pad1 s) (struct.2.size s) v (struct.2.ub s) ))
(define-fun update-struct.2.ub ((s struct.2) (v (_ BitVec 64))) struct.2 (mk-struct.2 (struct.2.is_writable s) (struct.2.$pad1 s) (struct.2.size s) (struct.2.lb s) v ))

(declare-datatypes ((struct.1 0)) (((mk-struct.1 (struct.1.max_elems (_ BitVec 64)) (struct.1.elems (_ BitVec 64)) ))))
(define-fun update-struct.1.max_elems ((s struct.1) (v (_ BitVec 64))) struct.1 (mk-struct.1 v (struct.1.elems s) ))
(define-fun update-struct.1.elems ((s struct.1) (v (_ BitVec 64))) struct.1 (mk-struct.1 (struct.1.max_elems s) v ))

(declare-datatypes ((struct.5 0)) (((mk-struct.5 (struct.5.max_elems (_ BitVec 64)) (struct.5.watermark (_ BitVec 64)) (struct.5.nof_elems (_ BitVec 64)) (struct.5.is_empty (_ BitVec 8)) (struct.5.indexed_by_object_id (_ BitVec 8)) (struct.5.$pad5 (_ BitVec 48)) (struct.5.elems (_ BitVec 64)) ))))
(define-fun update-struct.5.max_elems ((s struct.5) (v (_ BitVec 64))) struct.5 (mk-struct.5 v (struct.5.watermark s) (struct.5.nof_elems s) (struct.5.is_empty s) (struct.5.indexed_by_object_id s) (struct.5.$pad5 s) (struct.5.elems s) ))
(define-fun update-struct.5.watermark ((s struct.5) (v (_ BitVec 64))) struct.5 (mk-struct.5 (struct.5.max_elems s) v (struct.5.nof_elems s) (struct.5.is_empty s) (struct.5.indexed_by_object_id s) (struct.5.$pad5 s) (struct.5.elems s) ))
(define-fun update-struct.5.nof_elems ((s struct.5) (v (_ BitVec 64))) struct.5 (mk-struct.5 (struct.5.max_elems s) (struct.5.watermark s) v (struct.5.is_empty s) (struct.5.indexed_by_object_id s) (struct.5.$pad5 s) (struct.5.elems s) ))
(define-fun update-struct.5.is_empty ((s struct.5) (v (_ BitVec 8))) struct.5 (mk-struct.5 (struct.5.max_elems s) (struct.5.watermark s) (struct.5.nof_elems s) v (struct.5.indexed_by_object_id s) (struct.5.$pad5 s) (struct.5.elems s) ))
(define-fun update-struct.5.indexed_by_object_id ((s struct.5) (v (_ BitVec 8))) struct.5 (mk-struct.5 (struct.5.max_elems s) (struct.5.watermark s) (struct.5.nof_elems s) (struct.5.is_empty s) v (struct.5.$pad5 s) (struct.5.elems s) ))
(define-fun update-struct.5.$pad5 ((s struct.5) (v (_ BitVec 48))) struct.5 (mk-struct.5 (struct.5.max_elems s) (struct.5.watermark s) (struct.5.nof_elems s) (struct.5.is_empty s) (struct.5.indexed_by_object_id s) v (struct.5.elems s) ))
(define-fun update-struct.5.elems ((s struct.5) (v (_ BitVec 64))) struct.5 (mk-struct.5 (struct.5.max_elems s) (struct.5.watermark s) (struct.5.nof_elems s) (struct.5.is_empty s) (struct.5.indexed_by_object_id s) (struct.5.$pad5 s) v ))

(declare-datatypes ((struct.7 0)) (((mk-struct.7 (struct.7.fresh_car struct.2) (struct.7.ptr_pred (_ BitVec 64)) ))))
(define-fun update-struct.7.fresh_car ((s struct.7) (v struct.2)) struct.7 (mk-struct.7 v (struct.7.ptr_pred s) ))
(define-fun update-struct.7.ptr_pred ((s struct.7) (v (_ BitVec 64))) struct.7 (mk-struct.7 (struct.7.fresh_car s) v ))

(declare-datatypes ((struct.0 0)) (((mk-struct.0 (struct.0.contract_assigns struct.1) (struct.0.contract_frees struct.5) (struct.0.contract_frees_append struct.5) (struct.0.allocated struct.5) (struct.0.deallocated struct.5) (struct.0.linked_ptr_pred_ctx (_ BitVec 64)) (struct.0.linked_allocated (_ BitVec 64)) (struct.0.linked_deallocated (_ BitVec 64)) (struct.0.assume_requires_ctx (_ BitVec 8)) (struct.0.assert_requires_ctx (_ BitVec 8)) (struct.0.assume_ensures_ctx (_ BitVec 8)) (struct.0.assert_ensures_ctx (_ BitVec 8)) (struct.0.allow_allocate (_ BitVec 8)) (struct.0.allow_deallocate (_ BitVec 8)) (struct.0.$pad14 (_ BitVec 16)) ))))
(define-fun update-struct.0.contract_assigns ((s struct.0) (v struct.1)) struct.0 (mk-struct.0 v (struct.0.contract_frees s) (struct.0.contract_frees_append s) (struct.0.allocated s) (struct.0.deallocated s) (struct.0.linked_ptr_pred_ctx s) (struct.0.linked_allocated s) (struct.0.linked_deallocated s) (struct.0.assume_requires_ctx s) (struct.0.assert_requires_ctx s) (struct.0.assume_ensures_ctx s) (struct.0.assert_ensures_ctx s) (struct.0.allow_allocate s) (struct.0.allow_deallocate s) (struct.0.$pad14 s) ))
(define-fun update-struct.0.contract_frees ((s struct.0) (v struct.5)) struct.0 (mk-struct.0 (struct.0.contract_assigns s) v (struct.0.contract_frees_append s) (struct.0.allocated s) (struct.0.deallocated s) (struct.0.linked_ptr_pred_ctx s) (struct.0.linked_allocated s) (struct.0.linked_deallocated s) (struct.0.assume_requires_ctx s) (struct.0.assert_requires_ctx s) (struct.0.assume_ensures_ctx s) (struct.0.assert_ensures_ctx s) (struct.0.allow_allocate s) (struct.0.allow_deallocate s) (struct.0.$pad14 s) ))
(define-fun update-struct.0.contract_frees_append ((s struct.0) (v struct.5)) struct.0 (mk-struct.0 (struct.0.contract_assigns s) (struct.0.contract_frees s) v (struct.0.allocated s) (struct.0.deallocated s) (struct.0.linked_ptr_pred_ctx s) (struct.0.linked_allocated s) (struct.0.linked_deallocated s) (struct.0.assume_requires_ctx s) (struct.0.assert_requires_ctx s) (struct.0.assume_ensures_ctx s) (struct.0.assert_ensures_ctx s) (struct.0.allow_allocate s) (struct.0.allow_deallocate s) (struct.0.$pad14 s) ))
(define-fun update-struct.0.allocated ((s struct.0) (v struct.5)) struct.0 (mk-struct.0 (struct.0.contract_assigns s) (struct.0.contract_frees s) (struct.0.contract_frees_append s) v (struct.0.deallocated s) (struct.0.linked_ptr_pred_ctx s) (struct.0.linked_allocated s) (struct.0.linked_deallocated s) (struct.0.assume_requires_ctx s) (struct.0.assert_requires_ctx s) (struct.0.assume_ensures_ctx s) (struct.0.assert_ensures_ctx s) (struct.0.allow_allocate s) (struct.0.allow_deallocate s) (struct.0.$pad14 s) ))
(define-fun update-struct.0.deallocated ((s struct.0) (v struct.5)) struct.0 (mk-struct.0 (struct.0.contract_assigns s) (struct.0.contract_frees s) (struct.0.contract_frees_append s) (struct.0.allocated s) v (struct.0.linked_ptr_pred_ctx s) (struct.0.linked_allocated s) (struct.0.linked_deallocated s) (struct.0.assume_requires_ctx s) (struct.0.assert_requires_ctx s) (struct.0.assume_ensures_ctx s) (struct.0.assert_ensures_ctx s) (struct.0.allow_allocate s) (struct.0.allow_deallocate s) (struct.0.$pad14 s) ))
(define-fun update-struct.0.linked_ptr_pred_ctx ((s struct.0) (v (_ BitVec 64))) struct.0 (mk-struct.0 (struct.0.contract_assigns s) (struct.0.contract_frees s) (struct.0.contract_frees_append s) (struct.0.allocated s) (struct.0.deallocated s) v (struct.0.linked_allocated s) (struct.0.linked_deallocated s) (struct.0.assume_requires_ctx s) (struct.0.assert_requires_ctx s) (struct.0.assume_ensures_ctx s) (struct.0.assert_ensures_ctx s) (struct.0.allow_allocate s) (struct.0.allow_deallocate s) (struct.0.$pad14 s) ))
(define-fun update-struct.0.linked_allocated ((s struct.0) (v (_ BitVec 64))) struct.0 (mk-struct.0 (struct.0.contract_assigns s) (struct.0.contract_frees s) (struct.0.contract_frees_append s) (struct.0.allocated s) (struct.0.deallocated s) (struct.0.linked_ptr_pred_ctx s) v (struct.0.linked_deallocated s) (struct.0.assume_requires_ctx s) (struct.0.assert_requires_ctx s) (struct.0.assume_ensures_ctx s) (struct.0.assert_ensures_ctx s) (struct.0.allow_allocate s) (struct.0.allow_deallocate s) (struct.0.$pad14 s) ))
(define-fun update-struct.0.linked_deallocated ((s struct.0) (v (_ BitVec 64))) struct.0 (mk-struct.0 (struct.0.contract_assigns s) (struct.0.contract_frees s) (struct.0.contract_frees_append s) (struct.0.allocated s) (struct.0.deallocated s) (struct.0.linked_ptr_pred_ctx s) (struct.0.linked_allocated s) v (struct.0.assume_requires_ctx s) (struct.0.assert_requires_ctx s) (struct.0.assume_ensures_ctx s) (struct.0.assert_ensures_ctx s) (struct.0.allow_allocate s) (struct.0.allow_deallocate s) (struct.0.$pad14 s) ))
(define-fun update-struct.0.assume_requires_ctx ((s struct.0) (v (_ BitVec 8))) struct.0 (mk-struct.0 (struct.0.contract_assigns s) (struct.0.contract_frees s) (struct.0.contract_frees_append s) (struct.0.allocated s) (struct.0.deallocated s) (struct.0.linked_ptr_pred_ctx s) (struct.0.linked_allocated s) (struct.0.linked_deallocated s) v (struct.0.assert_requires_ctx s) (struct.0.assume_ensures_ctx s) (struct.0.assert_ensures_ctx s) (struct.0.allow_allocate s) (struct.0.allow_deallocate s) (struct.0.$pad14 s) ))
(define-fun update-struct.0.assert_requires_ctx ((s struct.0) (v (_ BitVec 8))) struct.0 (mk-struct.0 (struct.0.contract_assigns s) (struct.0.contract_frees s) (struct.0.contract_frees_append s) (struct.0.allocated s) (struct.0.deallocated s) (struct.0.linked_ptr_pred_ctx s) (struct.0.linked_allocated s) (struct.0.linked_deallocated s) (struct.0.assume_requires_ctx s) v (struct.0.assume_ensures_ctx s) (struct.0.assert_ensures_ctx s) (struct.0.allow_allocate s) (struct.0.allow_deallocate s) (struct.0.$pad14 s) ))
(define-fun update-struct.0.assume_ensures_ctx ((s struct.0) (v (_ BitVec 8))) struct.0 (mk-struct.0 (struct.0.contract_assigns s) (struct.0.contract_frees s) (struct.0.contract_frees_append s) (struct.0.allocated s) (struct.0.deallocated s) (struct.0.linked_ptr_pred_ctx s) (struct.0.linked_allocated s) (struct.0.linked_deallocated s) (struct.0.assume_requires_ctx s) (struct.0.assert_requires_ctx s) v (struct.0.assert_ensures_ctx s) (struct.0.allow_allocate s) (struct.0.allow_deallocate s) (struct.0.$pad14 s) ))
(define-fun update-struct.0.assert_ensures_ctx ((s struct.0) (v (_ BitVec 8))) struct.0 (mk-struct.0 (struct.0.contract_assigns s) (struct.0.contract_frees s) (struct.0.contract_frees_append s) (struct.0.allocated s) (struct.0.deallocated s) (struct.0.linked_ptr_pred_ctx s) (struct.0.linked_allocated s) (struct.0.linked_deallocated s) (struct.0.assume_requires_ctx s) (struct.0.assert_requires_ctx s) (struct.0.assume_ensures_ctx s) v (struct.0.allow_allocate s) (struct.0.allow_deallocate s) (struct.0.$pad14 s) ))
(define-fun update-struct.0.allow_allocate ((s struct.0) (v (_ BitVec 8))) struct.0 (mk-struct.0 (struct.0.contract_assigns s) (struct.0.contract_frees s) (struct.0.contract_frees_append s) (struct.0.allocated s) (struct.0.deallocated s) (struct.0.linked_ptr_pred_ctx s) (struct.0.linked_allocated s) (struct.0.linked_deallocated s) (struct.0.assume_requires_ctx s) (struct.0.assert_requires_ctx s) (struct.0.assume_ensures_ctx s) (struct.0.assert_ensures_ctx s) v (struct.0.allow_deallocate s) (struct.0.$pad14 s) ))
(define-fun update-struct.0.allow_deallocate ((s struct.0) (v (_ BitVec 8))) struct.0 (mk-struct.0 (struct.0.contract_assigns s) (struct.0.contract_frees s) (struct.0.contract_frees_append s) (struct.0.allocated s) (struct.0.deallocated s) (struct.0.linked_ptr_pred_ctx s) (struct.0.linked_allocated s) (struct.0.linked_deallocated s) (struct.0.assume_requires_ctx s) (struct.0.assert_requires_ctx s) (struct.0.assume_ensures_ctx s) (struct.0.assert_ensures_ctx s) (struct.0.allow_allocate s) v (struct.0.$pad14 s) ))
(define-fun update-struct.0.$pad14 ((s struct.0) (v (_ BitVec 16))) struct.0 (mk-struct.0 (struct.0.contract_assigns s) (struct.0.contract_frees s) (struct.0.contract_frees_append s) (struct.0.allocated s) (struct.0.deallocated s) (struct.0.linked_ptr_pred_ctx s) (struct.0.linked_allocated s) (struct.0.linked_deallocated s) (struct.0.assume_requires_ctx s) (struct.0.assert_requires_ctx s) (struct.0.assume_ensures_ctx s) (struct.0.assert_ensures_ctx s) (struct.0.allow_allocate s) (struct.0.allow_deallocate s) v ))

; find_symbols
(declare-fun |mlk_barrett_reduce::__requires_write_set!0@1| () struct.0)
; find_symbols
(declare-fun |symex::args::1| () (_ BitVec 64))
; set_to true
(assert (= (concat (_ bv2 8) (_ bv0 56)) |symex::args::1|))

; find_symbols
(declare-fun |mlk_barrett_reduce::__ensures_write_set!0@1| () struct.0)
; find_symbols
(declare-fun |symex::args::2| () (_ BitVec 64))
; set_to true
(assert (= (concat (_ bv3 8) (_ bv0 56)) |symex::args::2|))

; find_symbols
(declare-fun |mlk_barrett_reduce::__ptr_pred_ctx!0@1| () struct.7)
; find_symbols
(declare-fun |symex::args::3| () (_ BitVec 64))
; set_to true
(assert (= (concat (_ bv4 8) (_ bv0 56)) |symex::args::3|))

; find_symbols
(declare-fun |symex::args::4| () (_ BitVec 64))
; set_to true
(assert (= (concat (_ bv2 8) (_ bv0 56)) |symex::args::4|))

; find_symbols
(declare-fun |symex::args::5| () (_ BitVec 64))
; set_to true
(assert (= (concat (_ bv4 8) (_ bv0 56)) |symex::args::5|))

; find_symbols
(declare-fun |symex::args::6| () (_ BitVec 64))
; set_to true
(assert (= (concat (_ bv3 8) (_ bv0 56)) |symex::args::6|))

; find_symbols
(declare-fun |symex::args::7| () (_ BitVec 64))
; set_to true
(assert (= (concat (_ bv4 8) (_ bv0 56)) |symex::args::7|))

; find_symbols
(declare-fun |mlk_barrett_reduce::__contract_write_set!0@1| () struct.0)
; find_symbols
(declare-fun |symex::args::8| () (_ BitVec 64))
; set_to true
(assert (= (concat (_ bv5 8) (_ bv0 56)) |symex::args::8|))

; find_symbols
(declare-fun |symex::args::9| () (_ BitVec 16))
; set_to true
(assert (= |mlk_barrett_reduce::a_wrapper!0@1#1| |symex::args::9|))

; find_symbols
(declare-fun |symex::args::10| () (_ BitVec 64))
; set_to true
(assert (= (concat (_ bv5 8) (_ bv0 56)) |symex::args::10|))

; find_symbols
(declare-fun |symex::args::11| () (_ BitVec 64))
; set_to true
(assert (= (concat (_ bv2 8) (_ bv0 56)) |symex::args::11|))

; find_symbols
(declare-fun |symex::args::12| () (_ BitVec 16))
; set_to true
(assert (= |mlk_barrett_reduce::a_wrapper!0@1#1| |symex::args::12|))

; find_symbols
(declare-fun |symex::args::13| () (_ BitVec 64))
; set_to true
(assert (= (concat (_ bv5 8) (_ bv0 56)) |symex::args::13|))

; find_symbols
(declare-fun |symex::args::14| () (_ BitVec 64))
; set_to true
(assert (= (concat (_ bv2 8) (_ bv0 56)) |symex::args::14|))

; find_symbols
(declare-fun |symex::args::15| () (_ BitVec 16))
; set_to true
(assert (= |mlk_barrett_reduce::a_wrapper!0@1#1| |symex::args::15|))

; find_symbols
(declare-fun |symex::args::16| () (_ BitVec 64))
; set_to true
(assert (= (concat (_ bv5 8) (_ bv0 56)) |symex::args::16|))

; find_symbols
(declare-fun |symex::args::17| () (_ BitVec 64))
; set_to true
(assert (= (concat (_ bv5 8) (_ bv0 56)) |symex::args::17|))

; find_symbols
(declare-fun |mlk_barrett_reduce::1::res!0@1| () (_ BitVec 16))
; find_symbols
(declare-fun |symex::args::18| () (_ BitVec 64))
; set_to true
(assert (= (concat (_ bv6 8) (_ bv0 56)) |symex::args::18|))

; find_symbols
(declare-fun |symex::args::19| () (_ BitVec 64))
; set_to true
(assert (= (concat (_ bv5 8) (_ bv0 56)) |symex::args::19|))

; find_symbols
(declare-fun |symex::args::20| () (_ BitVec 64))
; set_to true
(assert (= (concat (_ bv6 8) (_ bv0 56)) |symex::args::20|))

; find_symbols
(declare-fun |symex::args::21| () (_ BitVec 64))
; set_to true
(assert (= (concat (_ bv4 8) (_ bv0 56)) |symex::args::21|))

; find_symbols
(declare-fun |symex::args::22| () (_ BitVec 64))
; set_to true
(assert (= (concat (_ bv3 8) (_ bv0 56)) |symex::args::22|))

; find_symbols
(declare-fun |symex::args::23| () (_ BitVec 64))
; set_to true
(assert (= (concat (_ bv5 8) (_ bv0 56)) |symex::args::23|))

; convert
; Converting var_no 4 with expr ID of =>
(define-fun B4 () Bool (=> true (not (let ( (prod (bvmul ((_ sign_extend 32) (_ bv20159 32)) ((_ sign_extend 32) ((_ sign_extend 16) |mlk_barrett_reduce::a!0@1#1|))) )) (or (bvsge prod (_ bv2147483648 64)) (bvslt prod (bvneg (_ bv2147483648 64))))))))

; convert
; Converting var_no 5 with expr ID of =>
(define-fun B5 () Bool (=> true (not (let ((?sum (bvadd ((_ sign_extend 1) (bvmul (_ bv20159 32) ((_ sign_extend 16) |mlk_barrett_reduce::a!0@1#1|))) ((_ sign_extend 1) (_ bv33554432 32))))) (not (= ((_ extract 32 32) ?sum) ((_ extract 31 31) ?sum)))))))

; convert
; Converting var_no 6 with expr ID of =>
(define-fun B6 () Bool (=> true (not (let ( (prod (bvmul ((_ sign_extend 32) |mlk_barrett_reduce::1::t!0@1#2|) ((_ sign_extend 32) (_ bv3329 32))) )) (or (bvsge prod (_ bv2147483648 64)) (bvslt prod (bvneg (_ bv2147483648 64))))))))

; convert
; Converting var_no 7 with expr ID of =>
(define-fun B7 () Bool (=> true (not (let ((?sum (bvsub ((_ sign_extend 1) ((_ sign_extend 16) |mlk_barrett_reduce::a!0@1#1|)) ((_ sign_extend 1) (bvmul |mlk_barrett_reduce::1::t!0@1#2| (_ bv3329 32)))))) (not (= ((_ extract 32 32) ?sum) ((_ extract 31 31) ?sum)))))))

; convert
; Converting var_no 8 with expr ID of =>
(define-fun B8 () Bool (=> true (and (bvsge (bvadd ((_ sign_extend 16) |mlk_barrett_reduce::a!0@1#1|) (bvneg (bvmul |mlk_barrett_reduce::1::t!0@1#2| (_ bv3329 32)))) (_ bv4294934528 32)) (not (bvsge (bvadd ((_ sign_extend 16) |mlk_barrett_reduce::a!0@1#1|) (bvneg (bvmul |mlk_barrett_reduce::1::t!0@1#2| (_ bv3329 32)))) (_ bv32768 32))))))

; convert
; Converting var_no 9 with expr ID of =>
(define-fun B9 () Bool (=> true (or (bvuge |mlk_barrett_reduce::1::1::_cbmc_idx12!0@1#1| (_ bv1 32)) (not (let ( (prod (bvmul ((_ sign_extend 64) ((_ zero_extend 32) |mlk_barrett_reduce::1::1::_cbmc_idx12!0@1#1|)) ((_ sign_extend 64) (_ bv2 64))) )) (or (bvsge prod (_ bv9223372036854775808 128)) (bvslt prod (bvneg (_ bv9223372036854775808 128)))))))))

; find_symbols
(declare-fun |mlk_barrett_reduce::1::1::_cbmc_idx12!0@1#0| () (_ BitVec 32))
; convert
; Converting var_no 10 with expr ID of =>
(define-fun B10 () Bool (=> true (or (bvuge |mlk_barrett_reduce::1::1::_cbmc_idx12!0@1#0| (_ bv1 32)) (not (bvuge ((_ zero_extend 1) (bvmul ((_ zero_extend 32) |mlk_barrett_reduce::1::1::_cbmc_idx12!0@1#0|) (_ bv2 64))) (_ bv3 65))))))

; find_symbols
(declare-fun |mlk_barrett_reduce::1::1::_cbmc_idx12!0@2#0| () (_ BitVec 32))
; convert
; Converting var_no 11 with expr ID of =>
(define-fun B11 () Bool (=> true (or (bvuge |mlk_barrett_reduce::1::1::_cbmc_idx12!0@2#0| (_ bv1 32)) (not (bvuge (bvadd ((_ zero_extend 1) (bvmul ((_ zero_extend 32) |mlk_barrett_reduce::1::1::_cbmc_idx12!0@2#0|) (_ bv2 64))) (_ bv2 65)) (_ bv3 65))))))

; find_symbols
(declare-fun |mlk_barrett_reduce::1::1::_cbmc_idx12!0@3#0| () (_ BitVec 32))
; convert
; Converting var_no 12 with expr ID of =>
(define-fun B12 () Bool (=> true (or (bvuge |mlk_barrett_reduce::1::1::_cbmc_idx12!0@3#0| (_ bv1 32)) (not (bvsge ((_ sign_extend 16) |mlk_barrett_reduce::1::res!0@1#2|) (_ bv4294965632 32))) (not (let ( (prod (bvmul ((_ sign_extend 64) ((_ zero_extend 32) |mlk_barrett_reduce::1::1::_cbmc_idx12!0@3#0|)) ((_ sign_extend 64) (_ bv2 64))) )) (or (bvsge prod (_ bv9223372036854775808 128)) (bvslt prod (bvneg (_ bv9223372036854775808 128)))))))))

; find_symbols
(declare-fun |mlk_barrett_reduce::1::1::_cbmc_idx12!0@4#0| () (_ BitVec 32))
; convert
; Converting var_no 13 with expr ID of =>
(define-fun B13 () Bool (=> true (or (bvuge |mlk_barrett_reduce::1::1::_cbmc_idx12!0@4#0| (_ bv1 32)) (not (bvsge ((_ sign_extend 16) |mlk_barrett_reduce::1::res!0@1#2|) (_ bv4294965632 32))) (not (bvuge ((_ zero_extend 1) (bvmul ((_ zero_extend 32) |mlk_barrett_reduce::1::1::_cbmc_idx12!0@4#0|) (_ bv2 64))) (_ bv3 65))))))

; find_symbols
(declare-fun |mlk_barrett_reduce::1::1::_cbmc_idx12!0@5#0| () (_ BitVec 32))
; convert
; Converting var_no 14 with expr ID of =>
(define-fun B14 () Bool (=> true (or (bvuge |mlk_barrett_reduce::1::1::_cbmc_idx12!0@5#0| (_ bv1 32)) (not (bvsge ((_ sign_extend 16) |mlk_barrett_reduce::1::res!0@1#2|) (_ bv4294965632 32))) (not (bvuge (bvadd ((_ zero_extend 1) (bvmul ((_ zero_extend 32) |mlk_barrett_reduce::1::1::_cbmc_idx12!0@5#0|) (_ bv2 64))) (_ bv2 65)) (_ bv3 65))))))

; find_symbols
(declare-fun |mlk_barrett_reduce::1::1::_cbmc_idx12!0@6#0| () (_ BitVec 32))
; convert
; Converting var_no 15 with expr ID of =>
(define-fun B15 () Bool (=> true (or (bvuge |mlk_barrett_reduce::1::1::_cbmc_idx12!0@6#0| (_ bv1 32)) (and (bvsge ((_ sign_extend 16) |mlk_barrett_reduce::1::res!0@1#2|) (_ bv4294965632 32)) (not (bvsge ((_ sign_extend 16) |mlk_barrett_reduce::1::res!0@1#2|) (_ bv1665 32)))))))

; convert
; Converting var_no 16 with expr ID of =>
(define-fun B16 () Bool (=> true (and (bvsge ((_ sign_extend 16) |mlk_barrett_reduce::__contract_return_value!0@1#2|) (_ bv4294965632 32)) (not (bvsge ((_ sign_extend 16) |mlk_barrett_reduce::__contract_return_value!0@1#2|) (_ bv1665 32))))))

; set_to true
(assert (or (not B4) (not B5) (not B6) (not B7) (not B8) (not B9) (not B10) (not B11) (not B12) (not B13) (not B14) (not B15) (not B16)))

; convert
; Converting var_no 17 with expr ID of not
(define-fun B17 () Bool (not B16))

; convert
; Converting var_no 18 with expr ID of not
(define-fun B18 () Bool (not B15))

; convert
; Converting var_no 19 with expr ID of not
(define-fun B19 () Bool (not B4))

; convert
; Converting var_no 20 with expr ID of not
(define-fun B20 () Bool (not B5))

; convert
; Converting var_no 21 with expr ID of not
(define-fun B21 () Bool (not B6))

; convert
; Converting var_no 22 with expr ID of not
(define-fun B22 () Bool (not B7))

; convert
; Converting var_no 23 with expr ID of not
(define-fun B23 () Bool (not B8))

; convert
; Converting var_no 24 with expr ID of not
(define-fun B24 () Bool (not B9))

; convert
; Converting var_no 25 with expr ID of not
(define-fun B25 () Bool (not B10))

; convert
; Converting var_no 26 with expr ID of not
(define-fun B26 () Bool (not B11))

; convert
; Converting var_no 27 with expr ID of not
(define-fun B27 () Bool (not B12))

; convert
; Converting var_no 28 with expr ID of not
(define-fun B28 () Bool (not B13))

; convert
; Converting var_no 29 with expr ID of not
(define-fun B29 () Bool (not B14))

; set_to true
(assert (or B17 B18 B19 B20 B21 B22 B23 B24 B25 B26 B27 B28 B29))

(check-sat)


(exit)
; end of SMT2 file
